PointerNetwork/Ptr_Net_TSPTW/benchmark/n20w20/n20w20.003.txt.solution
1 6 20 14 2 9 17 5 10 4 8 16 15 18 12 3 11 19 21 7 13 
394
